\Problem name: bays29.lp

Minimize
 obj: 107 x_1 + 241 x_2 + 190 x_3 + 124 x_4 + 80 x_5 + 316 x_6 + 76 x_7
 + 152 x_8 + 157 x_9 + 283 x_10 + 133 x_11 + 113 x_12 + 297 x_13 + 228 x_14
 + 129 x_15 + 348 x_16 + 276 x_17 + 188 x_18 + 150 x_19 + 65 x_20 + 341 x_21
 + 184 x_22 + 67 x_23 + 221 x_24 + 169 x_25 + 108 x_26 + 45 x_27 + 167 x_28
 + 148 x_29 + 137 x_30 + 88 x_31 + 127 x_32 + 336 x_33 + 183 x_34 + 134 x_35
 + 95 x_36 + 254 x_37 + 180 x_38 + 101 x_39 + 234 x_40 + 175 x_41 + 176 x_42
 + 265 x_43 + 199 x_44 + 182 x_45 + 67 x_46 + 42 x_47 + 278 x_48 + 271 x_49
 + 146 x_50 + 251 x_51 + 105 x_52 + 191 x_53 + 139 x_54 + 79 x_55 + 374 x_56
 + 171 x_57 + 259 x_58 + 509 x_59 + 317 x_60 + 217 x_61 + 232 x_62 + 491 x_63
 + 312 x_64 + 280 x_65 + 391 x_66 + 412 x_67 + 349 x_68 + 422 x_69 + 356 x_70
 + 355 x_71 + 204 x_72 + 182 x_73 + 435 x_74 + 417 x_75 + 292 x_76 + 424 x_77
 + 116 x_78 + 337 x_79 + 273 x_80 + 77 x_81 + 202 x_82 + 234 x_83 + 222 x_84
 + 192 x_85 + 248 x_86 + 42 x_87 + 117 x_88 + 287 x_89 + 79 x_90 + 107 x_91
 + 38 x_92 + 121 x_93 + 152 x_94 + 86 x_95 + 68 x_96 + 70 x_97 + 137 x_98
 + 151 x_99 + 239 x_100 + 135 x_101 + 137 x_102 + 242 x_103 + 165 x_104
 + 228 x_105 + 205 x_106 + 61 x_107 + 392 x_108 + 202 x_109 + 46 x_110
 + 160 x_111 + 319 x_112 + 112 x_113 + 163 x_114 + 322 x_115 + 240 x_116
 + 232 x_117 + 314 x_118 + 287 x_119 + 238 x_120 + 155 x_121 + 65 x_122
 + 366 x_123 + 300 x_124 + 175 x_125 + 307 x_126 + 57 x_127 + 220 x_128
 + 121 x_129 + 97 x_130 + 386 x_131 + 141 x_132 + 72 x_133 + 167 x_134
 + 351 x_135 + 55 x_136 + 157 x_137 + 331 x_138 + 272 x_139 + 226 x_140
 + 362 x_141 + 296 x_142 + 232 x_143 + 164 x_144 + 85 x_145 + 375 x_146
 + 249 x_147 + 147 x_148 + 301 x_149 + 118 x_150 + 188 x_151 + 60 x_152
 + 185 x_153 + 233 x_154 + 438 x_155 + 254 x_156 + 202 x_157 + 439 x_158
 + 235 x_159 + 254 x_160 + 210 x_161 + 187 x_162 + 313 x_163 + 266 x_164
 + 154 x_165 + 282 x_166 + 321 x_167 + 298 x_168 + 168 x_169 + 249 x_170
 + 95 x_171 + 437 x_172 + 190 x_173 + 314 x_174 + 435 x_175 + 213 x_176
 + 188 x_177 + 272 x_178 + 193 x_179 + 131 x_180 + 302 x_181 + 233 x_182
 + 98 x_183 + 344 x_184 + 289 x_185 + 177 x_186 + 216 x_187 + 141 x_188
 + 346 x_189 + 108 x_190 + 57 x_191 + 190 x_192 + 245 x_193 + 43 x_194
 + 81 x_195 + 243 x_196 + 206 x_197 + 365 x_198 + 89 x_199 + 209 x_200
 + 368 x_201 + 286 x_202 + 278 x_203 + 360 x_204 + 333 x_205 + 284 x_206
 + 201 x_207 + 111 x_208 + 412 x_209 + 321 x_210 + 221 x_211 + 353 x_212
 + 72 x_213 + 266 x_214 + 132 x_215 + 111 x_216 + 159 x_217 + 220 x_218
 + 57 x_219 + 149 x_220 + 80 x_221 + 132 x_222 + 193 x_223 + 127 x_224
 + 100 x_225 + 28 x_226 + 95 x_227 + 193 x_228 + 241 x_229 + 131 x_230
 + 169 x_231 + 200 x_232 + 161 x_233 + 189 x_234 + 163 x_235 + 404 x_236
 + 176 x_237 + 106 x_238 + 79 x_239 + 161 x_240 + 165 x_241 + 141 x_242
 + 95 x_243 + 187 x_244 + 254 x_245 + 103 x_246 + 279 x_247 + 215 x_248
 + 117 x_249 + 359 x_250 + 216 x_251 + 308 x_252 + 322 x_253 + 210 x_254
 + 384 x_255 + 325 x_256 + 279 x_257 + 415 x_258 + 349 x_259 + 285 x_260
 + 217 x_261 + 138 x_262 + 428 x_263 + 310 x_264 + 200 x_265 + 354 x_266
 + 169 x_267 + 241 x_268 + 112 x_269 + 238 x_270 + 186 x_271 + 117 x_272
 + 75 x_273 + 231 x_274 + 165 x_275 + 81 x_276 + 85 x_277 + 92 x_278
 + 230 x_279 + 184 x_280 + 74 x_281 + 150 x_282 + 208 x_283 + 104 x_284
 + 158 x_285 + 206 x_286 + 69 x_287 + 191 x_288 + 59 x_289 + 35 x_290
 + 125 x_291 + 167 x_292 + 255 x_293 + 44 x_294 + 309 x_295 + 245 x_296
 + 169 x_297 + 327 x_298 + 246 x_299 + 335 x_300 + 288 x_301 + 122 x_302
 + 122 x_303 + 56 x_304 + 56 x_305 + 108 x_306 + 175 x_307 + 113 x_308
 + 240 x_309 + 176 x_310 + 125 x_311 + 280 x_312 + 177 x_313 + 266 x_314
 + 243 x_315 + 244 x_316 + 178 x_317 + 66 x_318 + 160 x_319 + 161 x_320
 + 235 x_321 + 118 x_322 + 62 x_323 + 92 x_324 + 277 x_325 + 55 x_326
 + 155 x_327 + 275 x_328 + 66 x_329 + 178 x_330 + 198 x_331 + 286 x_332
 + 77 x_333 + 362 x_334 + 287 x_335 + 228 x_336 + 358 x_337 + 299 x_338
 + 380 x_339 + 319 x_340 + 112 x_341 + 132 x_342 + 220 x_343 + 79 x_344
 + 296 x_345 + 232 x_346 + 181 x_347 + 292 x_348 + 233 x_349 + 314 x_350
 + 253 x_351 + 128 x_352 + 167 x_353 + 169 x_354 + 179 x_355 + 120 x_356
 + 69 x_357 + 283 x_358 + 121 x_359 + 213 x_360 + 281 x_361 + 88 x_362
 + 211 x_363 + 269 x_364 + 159 x_365 + 197 x_366 + 172 x_367 + 189 x_368
 + 182 x_369 + 135 x_370 + 299 x_371 + 229 x_372 + 104 x_373 + 236 x_374
 + 110 x_375 + 149 x_376 + 97 x_377 + 108 x_378 + 353 x_379 + 289 x_380
 + 213 x_381 + 371 x_382 + 290 x_383 + 379 x_384 + 332 x_385 + 121 x_386
 + 162 x_387 + 345 x_388 + 80 x_389 + 189 x_390 + 342 x_391 + 154 x_392
 + 220 x_393 + 41 x_394 + 93 x_395 + 218 x_396 + 352 x_397 + 147 x_398
 + 247 x_399 + 350 x_400 + 265 x_401 + 178 x_402 + 39 x_403 + 124 x_404
 + 263 x_405 + 199 x_406
Subject To
 r_1:  x_1 + x_2 + x_3 + x_4 + x_5 + x_6 + x_7 + x_8 + x_9 + x_10 + x_11 + x_12
       + x_13 + x_14 + x_15 + x_16 + x_17 + x_18 + x_19 + x_20 + x_21 + x_22
       + x_23 + x_24 + x_25 + x_26 + x_27 + x_28  = 2
 r_2:  x_1 + x_29 + x_30 + x_31 + x_32 + x_33 + x_34 + x_35 + x_36 + x_37
       + x_38 + x_39 + x_40 + x_41 + x_42 + x_43 + x_44 + x_45 + x_46 + x_47
       + x_48 + x_49 + x_50 + x_51 + x_52 + x_53 + x_54 + x_55  = 2
 r_3:  x_2 + x_29 + x_56 + x_57 + x_58 + x_59 + x_60 + x_61 + x_62 + x_63
       + x_64 + x_65 + x_66 + x_67 + x_68 + x_69 + x_70 + x_71 + x_72 + x_73
       + x_74 + x_75 + x_76 + x_77 + x_78 + x_79 + x_80 + x_81  = 2
 r_4:  x_3 + x_30 + x_56 + x_82 + x_83 + x_84 + x_85 + x_86 + x_87 + x_88
       + x_89 + x_90 + x_91 + x_92 + x_93 + x_94 + x_95 + x_96 + x_97 + x_98
       + x_99 + x_100 + x_101 + x_102 + x_103 + x_104 + x_105 + x_106  = 2
 r_5:  x_4 + x_31 + x_57 + x_82 + x_107 + x_108 + x_109 + x_110 + x_111 + x_112
       + x_113 + x_114 + x_115 + x_116 + x_117 + x_118 + x_119 + x_120 + x_121
       + x_122 + x_123 + x_124 + x_125 + x_126 + x_127 + x_128 + x_129 + x_130
        = 2
 r_6:  x_5 + x_32 + x_58 + x_83 + x_107 + x_131 + x_132 + x_133 + x_134 + x_135
       + x_136 + x_137 + x_138 + x_139 + x_140 + x_141 + x_142 + x_143 + x_144
       + x_145 + x_146 + x_147 + x_148 + x_149 + x_150 + x_151 + x_152 + x_153
        = 2
 r_7:  x_6 + x_33 + x_59 + x_84 + x_108 + x_131 + x_154 + x_155 + x_156 + x_157
       + x_158 + x_159 + x_160 + x_161 + x_162 + x_163 + x_164 + x_165 + x_166
       + x_167 + x_168 + x_169 + x_170 + x_171 + x_172 + x_173 + x_174 + x_175
        = 2
 r_8:  x_7 + x_34 + x_60 + x_85 + x_109 + x_132 + x_154 + x_176 + x_177 + x_178
       + x_179 + x_180 + x_181 + x_182 + x_183 + x_184 + x_185 + x_186 + x_187
       + x_188 + x_189 + x_190 + x_191 + x_192 + x_193 + x_194 + x_195 + x_196
        = 2
 r_9:  x_8 + x_35 + x_61 + x_86 + x_110 + x_133 + x_155 + x_176 + x_197 + x_198
       + x_199 + x_200 + x_201 + x_202 + x_203 + x_204 + x_205 + x_206 + x_207
       + x_208 + x_209 + x_210 + x_211 + x_212 + x_213 + x_214 + x_215 + x_216
        = 2
 r_10: x_9 + x_36 + x_62 + x_87 + x_111 + x_134 + x_156 + x_177 + x_197 + x_217
       + x_218 + x_219 + x_220 + x_221 + x_222 + x_223 + x_224 + x_225 + x_226
       + x_227 + x_228 + x_229 + x_230 + x_231 + x_232 + x_233 + x_234 + x_235
        = 2
 r_11: x_10 + x_37 + x_63 + x_88 + x_112 + x_135 + x_157 + x_178 + x_198
       + x_217 + x_236 + x_237 + x_238 + x_239 + x_240 + x_241 + x_242 + x_243
       + x_244 + x_245 + x_246 + x_247 + x_248 + x_249 + x_250 + x_251 + x_252
       + x_253  = 2
 r_12: x_11 + x_38 + x_64 + x_89 + x_113 + x_136 + x_158 + x_179 + x_199
       + x_218 + x_236 + x_254 + x_255 + x_256 + x_257 + x_258 + x_259 + x_260
       + x_261 + x_262 + x_263 + x_264 + x_265 + x_266 + x_267 + x_268 + x_269
       + x_270  = 2
 r_13: x_12 + x_39 + x_65 + x_90 + x_114 + x_137 + x_159 + x_180 + x_200
       + x_219 + x_237 + x_254 + x_271 + x_272 + x_273 + x_274 + x_275 + x_276
       + x_277 + x_278 + x_279 + x_280 + x_281 + x_282 + x_283 + x_284 + x_285
       + x_286  = 2
 r_14: x_13 + x_40 + x_66 + x_91 + x_115 + x_138 + x_160 + x_181 + x_201
       + x_220 + x_238 + x_255 + x_271 + x_287 + x_288 + x_289 + x_290 + x_291
       + x_292 + x_293 + x_294 + x_295 + x_296 + x_297 + x_298 + x_299 + x_300
       + x_301  = 2
 r_15: x_14 + x_41 + x_67 + x_92 + x_116 + x_139 + x_161 + x_182 + x_202
       + x_221 + x_239 + x_256 + x_272 + x_287 + x_302 + x_303 + x_304 + x_305
       + x_306 + x_307 + x_308 + x_309 + x_310 + x_311 + x_312 + x_313 + x_314
       + x_315  = 2
 r_16: x_15 + x_42 + x_68 + x_93 + x_117 + x_140 + x_162 + x_183 + x_203
       + x_222 + x_240 + x_257 + x_273 + x_288 + x_302 + x_316 + x_317 + x_318
       + x_319 + x_320 + x_321 + x_322 + x_323 + x_324 + x_325 + x_326 + x_327
       + x_328  = 2
 r_17: x_16 + x_43 + x_69 + x_94 + x_118 + x_141 + x_163 + x_184 + x_204
       + x_223 + x_241 + x_258 + x_274 + x_289 + x_303 + x_316 + x_329 + x_330
       + x_331 + x_332 + x_333 + x_334 + x_335 + x_336 + x_337 + x_338 + x_339
       + x_340  = 2
 r_18: x_17 + x_44 + x_70 + x_95 + x_119 + x_142 + x_164 + x_185 + x_205
       + x_224 + x_242 + x_259 + x_275 + x_290 + x_304 + x_317 + x_329 + x_341
       + x_342 + x_343 + x_344 + x_345 + x_346 + x_347 + x_348 + x_349 + x_350
       + x_351  = 2
 r_19: x_18 + x_45 + x_71 + x_96 + x_120 + x_143 + x_165 + x_186 + x_206
       + x_225 + x_243 + x_260 + x_276 + x_291 + x_305 + x_318 + x_330 + x_341
       + x_352 + x_353 + x_354 + x_355 + x_356 + x_357 + x_358 + x_359 + x_360
       + x_361  = 2
 r_20: x_19 + x_46 + x_72 + x_97 + x_121 + x_144 + x_166 + x_187 + x_207
       + x_226 + x_244 + x_261 + x_277 + x_292 + x_306 + x_319 + x_331 + x_342
       + x_352 + x_362 + x_363 + x_364 + x_365 + x_366 + x_367 + x_368 + x_369
       + x_370  = 2
 r_21: x_20 + x_47 + x_73 + x_98 + x_122 + x_145 + x_167 + x_188 + x_208
       + x_227 + x_245 + x_262 + x_278 + x_293 + x_307 + x_320 + x_332 + x_343
       + x_353 + x_362 + x_371 + x_372 + x_373 + x_374 + x_375 + x_376 + x_377
       + x_378  = 2
 r_22: x_21 + x_48 + x_74 + x_99 + x_123 + x_146 + x_168 + x_189 + x_209
       + x_228 + x_246 + x_263 + x_279 + x_294 + x_308 + x_321 + x_333 + x_344
       + x_354 + x_363 + x_371 + x_379 + x_380 + x_381 + x_382 + x_383 + x_384
       + x_385  = 2
 r_23: x_22 + x_49 + x_75 + x_100 + x_124 + x_147 + x_169 + x_190 + x_210
       + x_229 + x_247 + x_264 + x_280 + x_295 + x_309 + x_322 + x_334 + x_345
       + x_355 + x_364 + x_372 + x_379 + x_386 + x_387 + x_388 + x_389 + x_390
       + x_391  = 2
 r_24: x_23 + x_50 + x_76 + x_101 + x_125 + x_148 + x_170 + x_191 + x_211
       + x_230 + x_248 + x_265 + x_281 + x_296 + x_310 + x_323 + x_335 + x_346
       + x_356 + x_365 + x_373 + x_380 + x_386 + x_392 + x_393 + x_394 + x_395
       + x_396  = 2
 r_25: x_24 + x_51 + x_77 + x_102 + x_126 + x_149 + x_171 + x_192 + x_212
       + x_231 + x_249 + x_266 + x_282 + x_297 + x_311 + x_324 + x_336 + x_347
       + x_357 + x_366 + x_374 + x_381 + x_387 + x_392 + x_397 + x_398 + x_399
       + x_400  = 2
 r_26: x_25 + x_52 + x_78 + x_103 + x_127 + x_150 + x_172 + x_193 + x_213
       + x_232 + x_250 + x_267 + x_283 + x_298 + x_312 + x_325 + x_337 + x_348
       + x_358 + x_367 + x_375 + x_382 + x_388 + x_393 + x_397 + x_401 + x_402
       + x_403  = 2
 r_27: x_26 + x_53 + x_79 + x_104 + x_128 + x_151 + x_173 + x_194 + x_214
       + x_233 + x_251 + x_268 + x_284 + x_299 + x_313 + x_326 + x_338 + x_349
       + x_359 + x_368 + x_376 + x_383 + x_389 + x_394 + x_398 + x_401 + x_404
       + x_405  = 2
 r_28: x_27 + x_54 + x_80 + x_105 + x_129 + x_152 + x_174 + x_195 + x_215
       + x_234 + x_252 + x_269 + x_285 + x_300 + x_314 + x_327 + x_339 + x_350
       + x_360 + x_369 + x_377 + x_384 + x_390 + x_395 + x_399 + x_402 + x_404
       + x_406  = 2
 r_29: x_28 + x_55 + x_81 + x_106 + x_130 + x_153 + x_175 + x_196 + x_216
       + x_235 + x_253 + x_270 + x_286 + x_301 + x_315 + x_328 + x_340 + x_351
       + x_361 + x_370 + x_378 + x_385 + x_391 + x_396 + x_400 + x_403 + x_405
       + x_406  = 2
Bounds
 0 <= x_1 <= 1
 0 <= x_2 <= 1
 0 <= x_3 <= 1
 0 <= x_4 <= 1
 0 <= x_5 <= 1
 0 <= x_6 <= 1
 0 <= x_7 <= 1
 0 <= x_8 <= 1
 0 <= x_9 <= 1
 0 <= x_10 <= 1
 0 <= x_11 <= 1
 0 <= x_12 <= 1
 0 <= x_13 <= 1
 0 <= x_14 <= 1
 0 <= x_15 <= 1
 0 <= x_16 <= 1
 0 <= x_17 <= 1
 0 <= x_18 <= 1
 0 <= x_19 <= 1
 0 <= x_20 <= 1
 0 <= x_21 <= 1
 0 <= x_22 <= 1
 0 <= x_23 <= 1
 0 <= x_24 <= 1
 0 <= x_25 <= 1
 0 <= x_26 <= 1
 0 <= x_27 <= 1
 0 <= x_28 <= 1
 0 <= x_29 <= 1
 0 <= x_30 <= 1
 0 <= x_31 <= 1
 0 <= x_32 <= 1
 0 <= x_33 <= 1
 0 <= x_34 <= 1
 0 <= x_35 <= 1
 0 <= x_36 <= 1
 0 <= x_37 <= 1
 0 <= x_38 <= 1
 0 <= x_39 <= 1
 0 <= x_40 <= 1
 0 <= x_41 <= 1
 0 <= x_42 <= 1
 0 <= x_43 <= 1
 0 <= x_44 <= 1
 0 <= x_45 <= 1
 0 <= x_46 <= 1
 0 <= x_47 <= 1
 0 <= x_48 <= 1
 0 <= x_49 <= 1
 0 <= x_50 <= 1
 0 <= x_51 <= 1
 0 <= x_52 <= 1
 0 <= x_53 <= 1
 0 <= x_54 <= 1
 0 <= x_55 <= 1
 0 <= x_56 <= 1
 0 <= x_57 <= 1
 0 <= x_58 <= 1
 0 <= x_59 <= 1
 0 <= x_60 <= 1
 0 <= x_61 <= 1
 0 <= x_62 <= 1
 0 <= x_63 <= 1
 0 <= x_64 <= 1
 0 <= x_65 <= 1
 0 <= x_66 <= 1
 0 <= x_67 <= 1
 0 <= x_68 <= 1
 0 <= x_69 <= 1
 0 <= x_70 <= 1
 0 <= x_71 <= 1
 0 <= x_72 <= 1
 0 <= x_73 <= 1
 0 <= x_74 <= 1
 0 <= x_75 <= 1
 0 <= x_76 <= 1
 0 <= x_77 <= 1
 0 <= x_78 <= 1
 0 <= x_79 <= 1
 0 <= x_80 <= 1
 0 <= x_81 <= 1
 0 <= x_82 <= 1
 0 <= x_83 <= 1
 0 <= x_84 <= 1
 0 <= x_85 <= 1
 0 <= x_86 <= 1
 0 <= x_87 <= 1
 0 <= x_88 <= 1
 0 <= x_89 <= 1
 0 <= x_90 <= 1
 0 <= x_91 <= 1
 0 <= x_92 <= 1
 0 <= x_93 <= 1
 0 <= x_94 <= 1
 0 <= x_95 <= 1
 0 <= x_96 <= 1
 0 <= x_97 <= 1
 0 <= x_98 <= 1
 0 <= x_99 <= 1
 0 <= x_100 <= 1
 0 <= x_101 <= 1
 0 <= x_102 <= 1
 0 <= x_103 <= 1
 0 <= x_104 <= 1
 0 <= x_105 <= 1
 0 <= x_106 <= 1
 0 <= x_107 <= 1
 0 <= x_108 <= 1
 0 <= x_109 <= 1
 0 <= x_110 <= 1
 0 <= x_111 <= 1
 0 <= x_112 <= 1
 0 <= x_113 <= 1
 0 <= x_114 <= 1
 0 <= x_115 <= 1
 0 <= x_116 <= 1
 0 <= x_117 <= 1
 0 <= x_118 <= 1
 0 <= x_119 <= 1
 0 <= x_120 <= 1
 0 <= x_121 <= 1
 0 <= x_122 <= 1
 0 <= x_123 <= 1
 0 <= x_124 <= 1
 0 <= x_125 <= 1
 0 <= x_126 <= 1
 0 <= x_127 <= 1
 0 <= x_128 <= 1
 0 <= x_129 <= 1
 0 <= x_130 <= 1
 0 <= x_131 <= 1
 0 <= x_132 <= 1
 0 <= x_133 <= 1
 0 <= x_134 <= 1
 0 <= x_135 <= 1
 0 <= x_136 <= 1
 0 <= x_137 <= 1
 0 <= x_138 <= 1
 0 <= x_139 <= 1
 0 <= x_140 <= 1
 0 <= x_141 <= 1
 0 <= x_142 <= 1
 0 <= x_143 <= 1
 0 <= x_144 <= 1
 0 <= x_145 <= 1
 0 <= x_146 <= 1
 0 <= x_147 <= 1
 0 <= x_148 <= 1
 0 <= x_149 <= 1
 0 <= x_150 <= 1
 0 <= x_151 <= 1
 0 <= x_152 <= 1
 0 <= x_153 <= 1
 0 <= x_154 <= 1
 0 <= x_155 <= 1
 0 <= x_156 <= 1
 0 <= x_157 <= 1
 0 <= x_158 <= 1
 0 <= x_159 <= 1
 0 <= x_160 <= 1
 0 <= x_161 <= 1
 0 <= x_162 <= 1
 0 <= x_163 <= 1
 0 <= x_164 <= 1
 0 <= x_165 <= 1
 0 <= x_166 <= 1
 0 <= x_167 <= 1
 0 <= x_168 <= 1
 0 <= x_169 <= 1
 0 <= x_170 <= 1
 0 <= x_171 <= 1
 0 <= x_172 <= 1
 0 <= x_173 <= 1
 0 <= x_174 <= 1
 0 <= x_175 <= 1
 0 <= x_176 <= 1
 0 <= x_177 <= 1
 0 <= x_178 <= 1
 0 <= x_179 <= 1
 0 <= x_180 <= 1
 0 <= x_181 <= 1
 0 <= x_182 <= 1
 0 <= x_183 <= 1
 0 <= x_184 <= 1
 0 <= x_185 <= 1
 0 <= x_186 <= 1
 0 <= x_187 <= 1
 0 <= x_188 <= 1
 0 <= x_189 <= 1
 0 <= x_190 <= 1
 0 <= x_191 <= 1
 0 <= x_192 <= 1
 0 <= x_193 <= 1
 0 <= x_194 <= 1
 0 <= x_195 <= 1
 0 <= x_196 <= 1
 0 <= x_197 <= 1
 0 <= x_198 <= 1
 0 <= x_199 <= 1
 0 <= x_200 <= 1
 0 <= x_201 <= 1
 0 <= x_202 <= 1
 0 <= x_203 <= 1
 0 <= x_204 <= 1
 0 <= x_205 <= 1
 0 <= x_206 <= 1
 0 <= x_207 <= 1
 0 <= x_208 <= 1
 0 <= x_209 <= 1
 0 <= x_210 <= 1
 0 <= x_211 <= 1
 0 <= x_212 <= 1
 0 <= x_213 <= 1
 0 <= x_214 <= 1
 0 <= x_215 <= 1
 0 <= x_216 <= 1
 0 <= x_217 <= 1
 0 <= x_218 <= 1
 0 <= x_219 <= 1
 0 <= x_220 <= 1
 0 <= x_221 <= 1
 0 <= x_222 <= 1
 0 <= x_223 <= 1
 0 <= x_224 <= 1
 0 <= x_225 <= 1
 0 <= x_226 <= 1
 0 <= x_227 <= 1
 0 <= x_228 <= 1
 0 <= x_229 <= 1
 0 <= x_230 <= 1
 0 <= x_231 <= 1
 0 <= x_232 <= 1
 0 <= x_233 <= 1
 0 <= x_234 <= 1
 0 <= x_235 <= 1
 0 <= x_236 <= 1
 0 <= x_237 <= 1
 0 <= x_238 <= 1
 0 <= x_239 <= 1
 0 <= x_240 <= 1
 0 <= x_241 <= 1
 0 <= x_242 <= 1
 0 <= x_243 <= 1
 0 <= x_244 <= 1
 0 <= x_245 <= 1
 0 <= x_246 <= 1
 0 <= x_247 <= 1
 0 <= x_248 <= 1
 0 <= x_249 <= 1
 0 <= x_250 <= 1
 0 <= x_251 <= 1
 0 <= x_252 <= 1
 0 <= x_253 <= 1
 0 <= x_254 <= 1
 0 <= x_255 <= 1
 0 <= x_256 <= 1
 0 <= x_257 <= 1
 0 <= x_258 <= 1
 0 <= x_259 <= 1
 0 <= x_260 <= 1
 0 <= x_261 <= 1
 0 <= x_262 <= 1
 0 <= x_263 <= 1
 0 <= x_264 <= 1
 0 <= x_265 <= 1
 0 <= x_266 <= 1
 0 <= x_267 <= 1
 0 <= x_268 <= 1
 0 <= x_269 <= 1
 0 <= x_270 <= 1
 0 <= x_271 <= 1
 0 <= x_272 <= 1
 0 <= x_273 <= 1
 0 <= x_274 <= 1
 0 <= x_275 <= 1
 0 <= x_276 <= 1
 0 <= x_277 <= 1
 0 <= x_278 <= 1
 0 <= x_279 <= 1
 0 <= x_280 <= 1
 0 <= x_281 <= 1
 0 <= x_282 <= 1
 0 <= x_283 <= 1
 0 <= x_284 <= 1
 0 <= x_285 <= 1
 0 <= x_286 <= 1
 0 <= x_287 <= 1
 0 <= x_288 <= 1
 0 <= x_289 <= 1
 0 <= x_290 <= 1
 0 <= x_291 <= 1
 0 <= x_292 <= 1
 0 <= x_293 <= 1
 0 <= x_294 <= 1
 0 <= x_295 <= 1
 0 <= x_296 <= 1
 0 <= x_297 <= 1
 0 <= x_298 <= 1
 0 <= x_299 <= 1
 0 <= x_300 <= 1
 0 <= x_301 <= 1
 0 <= x_302 <= 1
 0 <= x_303 <= 1
 0 <= x_304 <= 1
 0 <= x_305 <= 1
 0 <= x_306 <= 1
 0 <= x_307 <= 1
 0 <= x_308 <= 1
 0 <= x_309 <= 1
 0 <= x_310 <= 1
 0 <= x_311 <= 1
 0 <= x_312 <= 1
 0 <= x_313 <= 1
 0 <= x_314 <= 1
 0 <= x_315 <= 1
 0 <= x_316 <= 1
 0 <= x_317 <= 1
 0 <= x_318 <= 1
 0 <= x_319 <= 1
 0 <= x_320 <= 1
 0 <= x_321 <= 1
 0 <= x_322 <= 1
 0 <= x_323 <= 1
 0 <= x_324 <= 1
 0 <= x_325 <= 1
 0 <= x_326 <= 1
 0 <= x_327 <= 1
 0 <= x_328 <= 1
 0 <= x_329 <= 1
 0 <= x_330 <= 1
 0 <= x_331 <= 1
 0 <= x_332 <= 1
 0 <= x_333 <= 1
 0 <= x_334 <= 1
 0 <= x_335 <= 1
 0 <= x_336 <= 1
 0 <= x_337 <= 1
 0 <= x_338 <= 1
 0 <= x_339 <= 1
 0 <= x_340 <= 1
 0 <= x_341 <= 1
 0 <= x_342 <= 1
 0 <= x_343 <= 1
 0 <= x_344 <= 1
 0 <= x_345 <= 1
 0 <= x_346 <= 1
 0 <= x_347 <= 1
 0 <= x_348 <= 1
 0 <= x_349 <= 1
 0 <= x_350 <= 1
 0 <= x_351 <= 1
 0 <= x_352 <= 1
 0 <= x_353 <= 1
 0 <= x_354 <= 1
 0 <= x_355 <= 1
 0 <= x_356 <= 1
 0 <= x_357 <= 1
 0 <= x_358 <= 1
 0 <= x_359 <= 1
 0 <= x_360 <= 1
 0 <= x_361 <= 1
 0 <= x_362 <= 1
 0 <= x_363 <= 1
 0 <= x_364 <= 1
 0 <= x_365 <= 1
 0 <= x_366 <= 1
 0 <= x_367 <= 1
 0 <= x_368 <= 1
 0 <= x_369 <= 1
 0 <= x_370 <= 1
 0 <= x_371 <= 1
 0 <= x_372 <= 1
 0 <= x_373 <= 1
 0 <= x_374 <= 1
 0 <= x_375 <= 1
 0 <= x_376 <= 1
 0 <= x_377 <= 1
 0 <= x_378 <= 1
 0 <= x_379 <= 1
 0 <= x_380 <= 1
 0 <= x_381 <= 1
 0 <= x_382 <= 1
 0 <= x_383 <= 1
 0 <= x_384 <= 1
 0 <= x_385 <= 1
 0 <= x_386 <= 1
 0 <= x_387 <= 1
 0 <= x_388 <= 1
 0 <= x_389 <= 1
 0 <= x_390 <= 1
 0 <= x_391 <= 1
 0 <= x_392 <= 1
 0 <= x_393 <= 1
 0 <= x_394 <= 1
 0 <= x_395 <= 1
 0 <= x_396 <= 1
 0 <= x_397 <= 1
 0 <= x_398 <= 1
 0 <= x_399 <= 1
 0 <= x_400 <= 1
 0 <= x_401 <= 1
 0 <= x_402 <= 1
 0 <= x_403 <= 1
 0 <= x_404 <= 1
 0 <= x_405 <= 1
 0 <= x_406 <= 1
Binaries
 x_1  x_2  x_3  x_4  x_5  x_6  x_7  x_8  x_9  x_10  x_11  x_12  x_13  x_14 
 x_15  x_16  x_17  x_18  x_19  x_20  x_21  x_22  x_23  x_24  x_25  x_26  x_27 
 x_28  x_29  x_30  x_31  x_32  x_33  x_34  x_35  x_36  x_37  x_38  x_39  x_40 
 x_41  x_42  x_43  x_44  x_45  x_46  x_47  x_48  x_49  x_50  x_51  x_52  x_53 
 x_54  x_55  x_56  x_57  x_58  x_59  x_60  x_61  x_62  x_63  x_64  x_65  x_66 
 x_67  x_68  x_69  x_70  x_71  x_72  x_73  x_74  x_75  x_76  x_77  x_78  x_79 
 x_80  x_81  x_82  x_83  x_84  x_85  x_86  x_87  x_88  x_89  x_90  x_91  x_92 
 x_93  x_94  x_95  x_96  x_97  x_98  x_99  x_100  x_101  x_102  x_103  x_104 
 x_105  x_106  x_107  x_108  x_109  x_110  x_111  x_112  x_113  x_114  x_115 
 x_116  x_117  x_118  x_119  x_120  x_121  x_122  x_123  x_124  x_125  x_126 
 x_127  x_128  x_129  x_130  x_131  x_132  x_133  x_134  x_135  x_136  x_137 
 x_138  x_139  x_140  x_141  x_142  x_143  x_144  x_145  x_146  x_147  x_148 
 x_149  x_150  x_151  x_152  x_153  x_154  x_155  x_156  x_157  x_158  x_159 
 x_160  x_161  x_162  x_163  x_164  x_165  x_166  x_167  x_168  x_169  x_170 
 x_171  x_172  x_173  x_174  x_175  x_176  x_177  x_178  x_179  x_180  x_181 
 x_182  x_183  x_184  x_185  x_186  x_187  x_188  x_189  x_190  x_191  x_192 
 x_193  x_194  x_195  x_196  x_197  x_198  x_199  x_200  x_201  x_202  x_203 
 x_204  x_205  x_206  x_207  x_208  x_209  x_210  x_211  x_212  x_213  x_214 
 x_215  x_216  x_217  x_218  x_219  x_220  x_221  x_222  x_223  x_224  x_225 
 x_226  x_227  x_228  x_229  x_230  x_231  x_232  x_233  x_234  x_235  x_236 
 x_237  x_238  x_239  x_240  x_241  x_242  x_243  x_244  x_245  x_246  x_247 
 x_248  x_249  x_250  x_251  x_252  x_253  x_254  x_255  x_256  x_257  x_258 
 x_259  x_260  x_261  x_262  x_263  x_264  x_265  x_266  x_267  x_268  x_269 
 x_270  x_271  x_272  x_273  x_274  x_275  x_276  x_277  x_278  x_279  x_280 
 x_281  x_282  x_283  x_284  x_285  x_286  x_287  x_288  x_289  x_290  x_291 
 x_292  x_293  x_294  x_295  x_296  x_297  x_298  x_299  x_300  x_301  x_302 
 x_303  x_304  x_305  x_306  x_307  x_308  x_309  x_310  x_311  x_312  x_313 
 x_314  x_315  x_316  x_317  x_318  x_319  x_320  x_321  x_322  x_323  x_324 
 x_325  x_326  x_327  x_328  x_329  x_330  x_331  x_332  x_333  x_334  x_335 
 x_336  x_337  x_338  x_339  x_340  x_341  x_342  x_343  x_344  x_345  x_346 
 x_347  x_348  x_349  x_350  x_351  x_352  x_353  x_354  x_355  x_356  x_357 
 x_358  x_359  x_360  x_361  x_362  x_363  x_364  x_365  x_366  x_367  x_368 
 x_369  x_370  x_371  x_372  x_373  x_374  x_375  x_376  x_377  x_378  x_379 
 x_380  x_381  x_382  x_383  x_384  x_385  x_386  x_387  x_388  x_389  x_390 
 x_391  x_392  x_393  x_394  x_395  x_396  x_397  x_398  x_399  x_400  x_401 
 x_402  x_403  x_404  x_405  x_406 
End
